NAME: test1930
TYPE: TSP
DIMENSION: 11
EDGE_WEIGHT_TYPE: EUC_2D
NODE_COORD_SECTION
1 34.9021292283274 53.79376602318558
2 83.64084995893761 94.56734607083538
3 71.99855644793107 61.27853385780825
4 81.54610646755266 2.1337388549027336
5 9.985461303010357 61.46529845346551
6 52.14530628962192 78.08138119349708
7 17.02236139652854 72.97287927833733
8 31.805055503128234 30.16521323819611
9 9.830982501244446 56.990920297036226
10 61.603489188009796 92.68786352208473
11 10.179607348904895 50.317383363114274
EOF
